c nIsolatedPIs 6
c maxPI 14
p cnf 174 481
c gate 15 1 13 0
1 -15 0
13 -15 0
-1 -13 15 0
c gate 16 3 11 0
3 -16 0
11 -16 0
-3 -11 16 0
c gate 17 2 12 0
2 -17 0
12 -17 0
-2 -12 17 0
c gate 18 -16 -17 0
-16 -18 0
-17 -18 0
16 17 18 0
c gate 19 16 17 0
16 -19 0
17 -19 0
-16 -17 19 0
c gate 20 -18 -19 0
-18 -20 0
-19 -20 0
18 19 20 0
c gate 21 15 20 0
15 -21 0
20 -21 0
-15 -20 21 0
c gate 22 -15 -20 0
-15 -22 0
-20 -22 0
15 20 22 0
c gate 23 -21 -22 0
-21 -23 0
-22 -23 0
21 22 23 0
c gate 24 4 10 0
4 -24 0
10 -24 0
-4 -10 24 0
c gate 25 6 8 0
6 -25 0
8 -25 0
-6 -8 25 0
c gate 26 5 9 0
5 -26 0
9 -26 0
-5 -9 26 0
c gate 27 25 26 0
25 -27 0
26 -27 0
-25 -26 27 0
c gate 28 -25 -26 0
-25 -28 0
-26 -28 0
25 26 28 0
c gate 29 -27 -28 0
-27 -29 0
-28 -29 0
27 28 29 0
c gate 30 24 29 0
24 -30 0
29 -30 0
-24 -29 30 0
c gate 31 -24 -29 0
-24 -31 0
-29 -31 0
24 29 31 0
c gate 32 -30 -31 0
-30 -32 0
-31 -32 0
30 31 32 0
c gate 33 5 8 0
5 -33 0
8 -33 0
-5 -8 33 0
c gate 34 4 9 0
4 -34 0
9 -34 0
-4 -9 34 0
c gate 35 -33 -34 0
-33 -35 0
-34 -35 0
33 34 35 0
c gate 36 3 10 0
3 -36 0
10 -36 0
-3 -10 36 0
c gate 37 33 34 0
33 -37 0
34 -37 0
-33 -34 37 0
c gate 38 -35 -37 0
-35 -38 0
-37 -38 0
35 37 38 0
c gate 39 -36 38 0
-36 -39 0
38 -39 0
36 -38 39 0
c gate 40 -35 -39 0
-35 -40 0
-39 -40 0
35 39 40 0
c gate 41 32 40 0
32 -41 0
40 -41 0
-32 -40 41 0
c gate 42 -32 -40 0
-32 -42 0
-40 -42 0
32 40 42 0
c gate 43 -41 -42 0
-41 -43 0
-42 -43 0
41 42 43 0
c gate 44 23 43 0
23 -44 0
43 -44 0
-23 -43 44 0
c gate 45 -23 -43 0
-23 -45 0
-43 -45 0
23 43 45 0
c gate 46 -44 -45 0
-44 -46 0
-45 -46 0
44 45 46 0
c gate 47 4 8 0
4 -47 0
8 -47 0
-4 -8 47 0
c gate 48 3 9 0
3 -48 0
9 -48 0
-3 -9 48 0
c gate 49 47 48 0
47 -49 0
48 -49 0
-47 -48 49 0
c gate 50 -47 -48 0
-47 -50 0
-48 -50 0
47 48 50 0
c gate 51 -49 -50 0
-49 -51 0
-50 -51 0
49 50 51 0
c gate 52 2 10 0
2 -52 0
10 -52 0
-2 -10 52 0
c gate 53 51 52 0
51 -53 0
52 -53 0
-51 -52 53 0
c gate 54 -49 -53 0
-49 -54 0
-53 -54 0
49 53 54 0
c gate 55 36 -38 0
36 -55 0
-38 -55 0
-36 38 55 0
c gate 56 -39 -55 0
-39 -56 0
-55 -56 0
39 55 56 0
c gate 57 -54 -56 0
-54 -57 0
-56 -57 0
54 56 57 0
c gate 58 54 56 0
54 -58 0
56 -58 0
-54 -56 58 0
c gate 59 -57 -58 0
-57 -59 0
-58 -59 0
57 58 59 0
c gate 60 2 11 0
2 -60 0
11 -60 0
-2 -11 60 0
c gate 61 1 12 0
1 -61 0
12 -61 0
-1 -12 61 0
c gate 62 -60 -61 0
-60 -62 0
-61 -62 0
60 61 62 0
c gate 63 59 -62 0
59 -63 0
-62 -63 0
-59 62 63 0
c gate 64 -57 -63 0
-57 -64 0
-63 -64 0
57 63 64 0
c gate 65 46 -64 0
46 -65 0
-64 -65 0
-46 64 65 0
c gate 66 -46 64 0
-46 -66 0
64 -66 0
46 -64 66 0
c gate 67 -65 -66 0
-65 -67 0
-66 -67 0
65 66 67 0
c gate 68 -51 -52 0
-51 -68 0
-52 -68 0
51 52 68 0
c gate 69 -53 -68 0
-53 -69 0
-68 -69 0
53 68 69 0
c gate 70 3 8 0
3 -70 0
8 -70 0
-3 -8 70 0
c gate 71 2 9 0
2 -71 0
9 -71 0
-2 -9 71 0
c gate 72 1 10 0
1 -72 0
10 -72 0
-1 -10 72 0
c gate 73 71 72 0
71 -73 0
72 -73 0
-71 -72 73 0
c gate 74 -70 -73 0
-70 -74 0
-73 -74 0
70 73 74 0
c gate 75 -71 -72 0
-71 -75 0
-72 -75 0
71 72 75 0
c gate 76 -74 -75 0
-74 -76 0
-75 -76 0
74 75 76 0
c gate 77 69 76 0
69 -77 0
76 -77 0
-69 -76 77 0
c gate 78 1 11 0
1 -78 0
11 -78 0
-1 -11 78 0
c gate 79 -69 -76 0
-69 -79 0
-76 -79 0
69 76 79 0
c gate 80 -77 -79 0
-77 -80 0
-79 -80 0
77 79 80 0
c gate 81 78 80 0
78 -81 0
80 -81 0
-78 -80 81 0
c gate 82 -77 -81 0
-77 -82 0
-81 -82 0
77 81 82 0
c gate 83 -59 62 0
-59 -83 0
62 -83 0
59 -62 83 0
c gate 84 -63 -83 0
-63 -84 0
-83 -84 0
63 83 84 0
c gate 85 -82 84 0
-82 -85 0
84 -85 0
82 -84 85 0
c gate 86 67 85 0
67 -86 0
85 -86 0
-67 -85 86 0
c gate 87 -67 -85 0
-67 -87 0
-85 -87 0
67 85 87 0
c gate 88 -86 -87 0
-86 -88 0
-87 -88 0
86 87 88 0
c gate 89 60 61 0
60 -89 0
61 -89 0
-60 -61 89 0
c gate 90 -62 -89 0
-62 -90 0
-89 -90 0
62 89 90 0
c gate 91 59 90 0
59 -91 0
90 -91 0
-59 -90 91 0
c gate 92 -57 -91 0
-57 -92 0
-91 -92 0
57 91 92 0
c gate 93 -46 92 0
-46 -93 0
92 -93 0
46 -92 93 0
c gate 94 46 -92 0
46 -94 0
-92 -94 0
-46 92 94 0
c gate 95 89 -94 0
89 -95 0
-94 -95 0
-89 94 95 0
c gate 96 -93 95 0
-93 -96 0
95 -96 0
93 -95 96 0
c gate 97 -67 -89 0
-67 -97 0
-89 -97 0
67 89 97 0
c gate 98 -96 -97 0
-96 -98 0
-97 -98 0
96 97 98 0
c gate 99 -59 -90 0
-59 -99 0
-90 -99 0
59 90 99 0
c gate 100 -91 -99 0
-91 -100 0
-99 -100 0
91 99 100 0
c gate 101 -82 100 0
-82 -101 0
100 -101 0
82 -100 101 0
c gate 102 -3 -10 0
-3 -102 0
-10 -102 0
3 10 102 0
c gate 103 -36 -102 0
-36 -103 0
-102 -103 0
36 102 103 0
c gate 104 1 8 0
1 -104 0
8 -104 0
-1 -8 104 0
c gate 105 71 104 0
71 -105 0
104 -105 0
-71 -104 105 0
c gate 106 -103 105 0
-103 -106 0
105 -106 0
103 -105 106 0
c gate 107 -78 -80 0
-78 -107 0
-80 -107 0
78 80 107 0
c gate 108 -81 -107 0
-81 -108 0
-107 -108 0
81 107 108 0
c gate 109 106 108 0
106 -109 0
108 -109 0
-106 -108 109 0
c gate 110 82 -100 0
82 -110 0
-100 -110 0
-82 100 110 0
c gate 111 -101 -110 0
-101 -111 0
-110 -111 0
101 110 111 0
c gate 112 109 111 0
109 -112 0
111 -112 0
-109 -111 112 0
c gate 113 -101 -112 0
-101 -113 0
-112 -113 0
101 112 113 0
c gate 114 -98 113 0
-98 -114 0
113 -114 0
98 -113 114 0
c gate 115 98 -113 0
98 -115 0
-113 -115 0
-98 113 115 0
c gate 116 -114 -115 0
-114 -116 0
-115 -116 0
114 115 116 0
c gate 117 88 -116 0
88 -117 0
-116 -117 0
-88 116 117 0
c gate 118 -41 -44 0
-41 -118 0
-44 -118 0
41 44 118 0
c gate 119 -27 -30 0
-27 -119 0
-30 -119 0
27 30 119 0
c gate 120 7 8 0
7 -120 0
8 -120 0
-7 -8 120 0
c gate 121 6 9 0
6 -121 0
9 -121 0
-6 -9 121 0
c gate 122 -120 -121 0
-120 -122 0
-121 -122 0
120 121 122 0
c gate 123 120 121 0
120 -123 0
121 -123 0
-120 -121 123 0
c gate 124 -122 -123 0
-122 -124 0
-123 -124 0
122 123 124 0
c gate 125 5 10 0
5 -125 0
10 -125 0
-5 -10 125 0
c gate 126 124 -125 0
124 -126 0
-125 -126 0
-124 125 126 0
c gate 127 -124 125 0
-124 -127 0
125 -127 0
124 -125 127 0
c gate 128 -126 -127 0
-126 -128 0
-127 -128 0
126 127 128 0
c gate 129 119 128 0
119 -129 0
128 -129 0
-119 -128 129 0
c gate 130 -119 -128 0
-119 -130 0
-128 -130 0
119 128 130 0
c gate 131 -129 -130 0
-129 -131 0
-130 -131 0
129 130 131 0
c gate 132 2 13 0
2 -132 0
13 -132 0
-2 -13 132 0
c gate 133 4 11 0
4 -133 0
11 -133 0
-4 -11 133 0
c gate 134 3 12 0
3 -134 0
12 -134 0
-3 -12 134 0
c gate 135 -133 -134 0
-133 -135 0
-134 -135 0
133 134 135 0
c gate 136 133 134 0
133 -136 0
134 -136 0
-133 -134 136 0
c gate 137 -135 -136 0
-135 -137 0
-136 -137 0
135 136 137 0
c gate 138 132 137 0
132 -138 0
137 -138 0
-132 -137 138 0
c gate 139 -132 -137 0
-132 -139 0
-137 -139 0
132 137 139 0
c gate 140 -138 -139 0
-138 -140 0
-139 -140 0
138 139 140 0
c gate 141 131 -140 0
131 -141 0
-140 -141 0
-131 140 141 0
c gate 142 -131 140 0
-131 -142 0
140 -142 0
131 -140 142 0
c gate 143 -141 -142 0
-141 -143 0
-142 -143 0
141 142 143 0
c gate 144 -118 -143 0
-118 -144 0
-143 -144 0
118 143 144 0
c gate 145 118 143 0
118 -145 0
143 -145 0
-118 -143 145 0
c gate 146 -144 -145 0
-144 -146 0
-145 -146 0
144 145 146 0
c gate 147 1 14 0
1 -147 0
14 -147 0
-1 -14 147 0
c gate 148 -19 -21 0
-19 -148 0
-21 -148 0
19 21 148 0
c gate 149 147 -148 0
147 -149 0
-148 -149 0
-147 148 149 0
c gate 150 -147 148 0
-147 -150 0
148 -150 0
147 -148 150 0
c gate 151 -149 -150 0
-149 -151 0
-150 -151 0
149 150 151 0
c gate 152 146 151 0
146 -152 0
151 -152 0
-146 -151 152 0
c gate 153 -146 -151 0
-146 -153 0
-151 -153 0
146 151 153 0
c gate 154 -152 -153 0
-152 -154 0
-153 -154 0
152 153 154 0
c gate 155 65 154 0
65 -155 0
154 -155 0
-65 -154 155 0
c gate 156 -65 -154 0
-65 -156 0
-154 -156 0
65 154 156 0
c gate 157 -155 -156 0
-155 -157 0
-156 -157 0
155 156 157 0
c gate 158 -86 -157 0
-86 -158 0
-157 -158 0
86 157 158 0
c gate 159 98 101 0
98 -159 0
101 -159 0
-98 -101 159 0
c gate 160 -94 -96 0
-94 -160 0
-96 -160 0
94 96 160 0
c gate 161 154 -160 0
154 -161 0
-160 -161 0
-154 160 161 0
c gate 162 -154 160 0
-154 -162 0
160 -162 0
154 -160 162 0
c gate 163 -161 -162 0
-161 -163 0
-162 -163 0
161 162 163 0
c gate 164 159 163 0
159 -164 0
163 -164 0
-159 -163 164 0
c gate 165 -159 -163 0
-159 -165 0
-163 -165 0
159 163 165 0
c gate 166 -164 -165 0
-164 -166 0
-165 -166 0
164 165 166 0
c gate 167 98 112 0
98 -167 0
112 -167 0
-98 -112 167 0
c gate 168 166 167 0
166 -168 0
167 -168 0
-166 -167 168 0
c gate 169 -166 -167 0
-166 -169 0
-167 -169 0
166 167 169 0
c gate 170 -168 -169 0
-168 -170 0
-169 -170 0
168 169 170 0
c gate 171 158 170 0
158 -171 0
170 -171 0
-158 -170 171 0
c gate 172 -158 -170 0
-158 -172 0
-170 -172 0
158 170 172 0
c gate 173 -171 -172 0
-171 -173 0
-172 -173 0
171 172 173 0
c gate 174 -117 -173 0
-117 -174 0
-173 -174 0
117 173 174 0
c PO
174 0
